NAME : berlin52-R-5-2-a.10386.tour
COMMENT : Length = 10386
COMMENT : Found by LKH-3 [Keld Helsgaun] Tue Jul 30 13:14:23 2024
TYPE : TOUR
DIMENSION : 52
TOUR_SECTION
1
22
45
8
43
33
11
27
4
6
15
38
40
39
36
34
44
23
50
29
30
42
7
2
17
3
41
9
10
19
18
31
21
20
16
46
26
47
14
52
13
28
12
51
25
5
24
48
37
35
49
32
-1
EOF
